(set-logic QF_NIA)
(declare-const $0_0 Int)
(declare-const $L_1_1 Int)
(declare-const $L_1_2 Int)
(declare-const $L_1_3 Int)
(declare-const $L_1_4 Int)
(declare-const $L_1_5 Int)
(declare-const $L_1_6 Int)
(declare-const $L_1_7 Int)
(declare-const $L_2_1 Int)
(declare-const $L_2_2 Int)
(declare-const $L_2_3 Int)
(declare-const $L_2_4 Int)
(declare-const $L_2_5 Int)
(declare-const $L_2_6 Int)
(declare-const $L_2_7 Int)
(declare-const $L_3_1 Int)
(declare-const $L_3_2 Int)
(declare-const $L_3_3 Int)
(declare-const $L_3_4 Int)
(declare-const $L_4_1 Int)
(declare-const $L_4_2 Int)
(declare-const $L_4_3 Int)
(declare-const $L_4_4 Int)
(declare-const $L_5_1 Int)
(declare-const $L_5_2 Int)
(declare-const $L_5_3 Int)
(declare-const $L_5_4 Int)
(declare-const $L_5_5 Int)
(declare-const $L_6_1 Int)
(declare-const $L_6_2 Int)
(declare-const $L_6_3 Int)
(declare-const $L_6_4 Int)
(declare-const $L_6_5 Int)
(declare-const $L_7_1 Int)
(declare-const $L_7_2 Int)
(declare-const $L_7_3 Int)
(declare-const $L_7_4 Int)
(declare-const $L_7_5 Int)
(declare-const $P_1_1 Int)
(declare-const $P_1_2 Int)
(declare-const $P_1_0 Int)
(declare-const $P_2_0 Int)
(declare-const $P_2_1 Int)
(declare-const $P_2_2 Int)
(declare-const $L_8_1 Int)
(declare-const $L_8_2 Int)
(declare-const $L_8_3 Int)
(declare-const $L_8_4 Int)
(declare-const $L_8_5 Int)
(declare-const $-_1 Int)
(declare-const $-_2 Int)
(declare-const $s_1 Int)
(declare-const $Q_1_0 Int)
(declare-const $Q_1_1 Int)
(declare-const $Q_1_2 Int)
(declare-const $Q_2_0 Int)
(declare-const $Q_2_1 Int)
(declare-const $-_0 Int)
(declare-const $Q_2_2 Int)
(declare-const $s_0 Int)
(declare-const $L_9_1 Int)
(declare-const $L_9_2 Int)
(assert (>= 0 $Q_1_0))
(assert (>= (+ $Q_1_1 $Q_1_2) 0))
(assert (>= 0 $Q_2_0))
(assert (>= (+ $Q_2_1 $Q_2_2) 0))
(assert (>= 0 (+ $P_1_0 (* (- $P_1_1) $-_1 $0_0) (* (- $P_1_1) $-_0) (* (- $P_1_2) $0_0))))
(assert (>= (* $P_1_1 $-_2) 0))
(assert (>= 0 (+ $P_2_0 (* (- $P_2_1) $-_1 $0_0) (* (- $P_2_1) $-_0) (* (- $P_2_2) $0_0))))
(assert (>= (* $P_2_1 $-_2) 0))
(assert (>= 0 (+ $P_1_0 (* (- $P_1_1) $-_2 $0_0) (* (- $P_1_1) $-_0))))
(assert (>= (+ (* $P_1_1 $-_1) $P_1_2) 0))
(assert (>= 0 (+ $P_2_0 (* (- $P_2_1) $-_2 $0_0) (* (- $P_2_1) $-_0))))
(assert (>= (+ (* $P_2_1 $-_1) $P_2_2) 0))
(assert (>= 0 (+ $P_1_0 (* (- $P_1_1) $-_1 $s_0) (* (- $P_1_1) $-_2 $s_0) (* (- $P_1_1) $-_0) (* (- $P_1_2) $-_0))))
(assert (>= (+ (* $P_1_1 $-_1 $s_1) (* $P_1_2 $-_1)) 0))
(assert (>= (+ (* $P_1_1 $-_2 $s_1) (* $P_1_2 $-_2)) 0))
(assert (>= 0 (+ $P_2_0 (* (- $P_2_1) $-_1 $s_0) (* (- $P_2_1) $-_2 $s_0) (* (- $P_2_1) $-_0) (* (- $P_2_2) $-_0))))
(assert (>= (+ (* $P_2_1 $-_1 $s_1) (* $P_2_2 $-_1)) 0))
(assert (>= (+ (* $P_2_1 $-_2 $s_1) (* $P_2_2 $-_2)) 0))
(assert (>= $0_0 0))
(assert (>= $-_1 0))
(assert (>= $-_2 0))
(assert (>= $-_0 0))
(assert (>= $s_1 0))
(assert (>= $s_0 0))
(assert (= $Q_1_1 (+ (* 1 $L_1_1) (* $P_1_1 $L_1_4) (* $P_2_1 $L_1_5))))
(assert (= 0 (+ (* 1 $L_1_2) (* $P_1_2 $L_1_4) (* $P_2_2 $L_1_5) (* $Q_1_1 $L_1_6) (* $Q_2_1 $L_1_7))))
(assert (= $Q_1_2 (+ (* 1 $L_1_3) (* $Q_1_2 $L_1_6) (* $Q_2_2 $L_1_7))))
(assert (>= (+ (* $L_1_4 $P_1_0) (* $L_1_5 $P_2_0) (* $L_1_6 $Q_1_0) (* $L_1_7 $Q_2_0)) $Q_1_0))
(assert (>= $L_1_1 0))
(assert (>= $L_1_2 0))
(assert (>= $L_1_3 0))
(assert (>= $L_1_4 0))
(assert (>= $L_1_5 0))
(assert (>= $L_1_6 0))
(assert (>= $L_1_7 0))
(assert (= $Q_2_1 (+ (* 1 $L_2_1) (* $P_1_1 $L_2_4) (* $P_2_1 $L_2_5))))
(assert (= 0 (+ (* 1 $L_2_2) (* $P_1_2 $L_2_4) (* $P_2_2 $L_2_5) (* $Q_1_1 $L_2_6) (* $Q_2_1 $L_2_7))))
(assert (= $Q_2_2 (+ (* 1 $L_2_3) (* $Q_1_2 $L_2_6) (* $Q_2_2 $L_2_7))))
(assert (>= (+ (* $L_2_4 $P_1_0) (* $L_2_5 $P_2_0) (* $L_2_6 $Q_1_0) (* $L_2_7 $Q_2_0)) $Q_2_0))
(assert (>= $L_2_1 0))
(assert (>= $L_2_2 0))
(assert (>= $L_2_3 0))
(assert (>= $L_2_4 0))
(assert (>= $L_2_5 0))
(assert (>= $L_2_6 0))
(assert (>= $L_2_7 0))
(assert (= (* $P_1_1 $s_1) (+ (* 1 $L_3_1) (* $P_1_1 $L_3_3) (* $P_2_1 $L_3_4))))
(assert (= (* $P_1_2 $s_1) (+ (* 1 $L_3_2) (* $P_1_2 $L_3_3) (* $P_2_2 $L_3_4))))
(assert (>= (+ (* $L_3_3 $P_1_0) (* $L_3_4 $P_2_0)) (+ $P_1_0 (* (- $P_1_1) $s_0) (* (- $P_1_2) $s_0))))
(assert (>= $L_3_1 0))
(assert (>= $L_3_2 0))
(assert (>= $L_3_3 0))
(assert (>= $L_3_4 0))
(assert (= (* $P_2_1 $s_1) (+ (* 1 $L_4_1) (* $P_1_1 $L_4_3) (* $P_2_1 $L_4_4))))
(assert (= (* $P_2_2 $s_1) (+ (* 1 $L_4_2) (* $P_1_2 $L_4_3) (* $P_2_2 $L_4_4))))
(assert (>= (+ (* $L_4_3 $P_1_0) (* $L_4_4 $P_2_0)) (+ $P_2_0 (* (- $P_2_1) $s_0) (* (- $P_2_2) $s_0))))
(assert (>= $L_4_1 0))
(assert (>= $L_4_2 0))
(assert (>= $L_4_3 0))
(assert (>= $L_4_4 0))
(assert (= (+ (* $P_1_1 $-_2) (* $P_1_2 $-_2)) (* 1 $L_5_3)))
(assert (= (* $P_1_1 $-_1) (+ (* 1 $L_5_1) (* $P_1_1 $L_5_4) (* $P_2_1 $L_5_5))))
(assert (= (* $P_1_2 $-_1) (+ (* 1 $L_5_2) (* $P_1_2 $L_5_4) (* $P_2_2 $L_5_5))))
(assert (>= (+ (* $L_5_4 $P_1_0) (* $L_5_5 $P_2_0)) (+ $P_1_0 (* (- $P_1_1) $-_0) (* (- $P_1_2) $-_0))))
(assert (>= $L_5_1 0))
(assert (>= $L_5_2 0))
(assert (>= $L_5_3 0))
(assert (>= $L_5_4 0))
(assert (>= $L_5_5 0))
(assert (= (+ (* $P_2_1 $-_2) (* $P_2_2 $-_2)) (* 1 $L_6_3)))
(assert (= (* $P_2_1 $-_1) (+ (* 1 $L_6_1) (* $P_1_1 $L_6_4) (* $P_2_1 $L_6_5))))
(assert (= (* $P_2_2 $-_1) (+ (* 1 $L_6_2) (* $P_1_2 $L_6_4) (* $P_2_2 $L_6_5))))
(assert (>= (+ (* $L_6_4 $P_1_0) (* $L_6_5 $P_2_0)) (+ $P_2_0 (* (- $P_2_1) $-_0) (* (- $P_2_2) $-_0))))
(assert (>= $L_6_1 0))
(assert (>= $L_6_2 0))
(assert (>= $L_6_3 0))
(assert (>= $L_6_4 0))
(assert (>= $L_6_5 0))
(assert (= (+ (* $P_1_1 $-_1) (* $P_1_2 $-_1)) (* 1 $L_7_3)))
(assert (= (* $P_1_1 $-_2) (+ (* 1 $L_7_1) (* $P_1_1 $L_7_4) (* $P_2_1 $L_7_5))))
(assert (= (* $P_1_2 $-_2) (+ (* 1 $L_7_2) (* $P_1_2 $L_7_4) (* $P_2_2 $L_7_5))))
(assert (>= (+ (* $L_7_4 $P_1_0) (* $L_7_5 $P_2_0)) (+ $P_1_0 (* (- $P_1_1) $-_0) (* (- $P_1_2) $-_0))))
(assert (>= $L_7_1 0))
(assert (>= $L_7_2 0))
(assert (>= $L_7_3 0))
(assert (>= $L_7_4 0))
(assert (>= $L_7_5 0))
(assert (= (+ (* $P_2_1 $-_1) (* $P_2_2 $-_1)) (* 1 $L_8_3)))
(assert (= (* $P_2_1 $-_2) (+ (* 1 $L_8_1) (* $P_1_1 $L_8_4) (* $P_2_1 $L_8_5))))
(assert (= (* $P_2_2 $-_2) (+ (* 1 $L_8_2) (* $P_1_2 $L_8_4) (* $P_2_2 $L_8_5))))
(assert (>= (+ (* $L_8_4 $P_1_0) (* $L_8_5 $P_2_0)) (+ $P_2_0 (* (- $P_2_1) $-_0) (* (- $P_2_2) $-_0))))
(assert (>= $L_8_1 0))
(assert (>= $L_8_2 0))
(assert (>= $L_8_3 0))
(assert (>= $L_8_4 0))
(assert (>= $L_8_5 0))
(assert (= (+ (* (- $Q_2_1) $-_1) (* (- $Q_2_1) $-_2) (* (- $Q_2_2) $s_1)) (+ (* 1 $L_9_1) (* $Q_1_1 $-_1 $L_9_2) (* $Q_1_1 $-_2 $L_9_2) (* $Q_1_2 $s_1 $L_9_2))))
(assert (>= (+ (* $L_9_2 $Q_1_0) (* $L_9_2 (- $Q_1_1) $-_0) (* $L_9_2 (- $Q_1_2) $s_0)) (+ (- $Q_2_0) 1 (* $Q_2_1 $-_0) (* $Q_2_2 $s_0))))
(assert (>= $L_9_1 0))
(assert (>= $L_9_2 0))
(check-sat)
(get-model)
